<number of tasks>
50

<cycle time>
1000

<order strength>
0.196


<task times>
1 98
2 136
3 26
4 255
5 105
6 149
7 26
8 80
9 248
10 155
11 21
12 306
13 166
14 61
15 70
16 32
17 151
18 167
19 29
20 154
21 105
22 251
23 121
24 32
25 204
26 150
27 25
28 83
29 194
30 36
31 178
32 94
33 37
34 251
35 52
36 155
37 164
38 127
39 109
40 207
41 120
42 45
43 161
44 30
45 34
46 21
47 69
48 105
49 199
50 114

<precedence relations>
1,8
2,9
3,26
4,10
6,7
6,10
6,11
6,12
6,13
7,36
8,17
9,18
10,14
10,20
10,21
12,15
12,22
13,16
13,19
13,22
14,36
15,36
16,23
18,26
20,24
20,25
21,39
21,40
23,27
24,50
25,28
25,30
26,29
27,31
28,32
28,33
29,34
30,35
31,36
32,37
33,38
33,41
34,40
35,39
36,42
36,43
36,44
36,45
37,47
38,46
39,48
39,49
41,50

<end>
